NAME : amz1919.121912_79912.tour
COMMENT : Cost = 121912_79912
COMMENT : Found by LKH-AMZ [Keld Helsgaun] Sun May 11 15:03:06 2025
COMMENT : TW viol.: 0 #: 0
TYPE : TOUR
DIMENSION : 88
TOUR_SECTION
53
37
87
88
21
13
23
35
52
31
8
41
55
16
84
24
26
5
72
14
11
22
57
68
79
34
3
18
71
61
81
40
47
27
28
64
29
77
42
45
58
4
6
82
51
65
12
43
25
1
20
19
74
75
32
85
46
70
62
60
17
7
73
56
36
66
33
86
69
49
54
80
48
9
59
44
78
10
38
30
15
50
2
39
63
67
83
76
-1
EOF
